language Essence 1.3

letting class be function(1 --> 2, 2 --> 2, 3 --> 2, 4 --> 2, 5 --> 2, 6 --> 1, 7 --> 1)
letting deck_length be 79
letting deck_width be 77
letting length be function(1 --> 22, 2 --> 67, 3 --> 30, 4 --> 3, 5 --> 12, 6 --> 47, 7 --> 10)
letting n_classes be 2
letting n_containers be 7
letting separation be function({1, 2} --> 24)
letting width be function(1 --> 10, 2 --> 3, 3 --> 45, 4 --> 7, 5 --> 30, 6 --> 48, 7 --> 25)
